assignment_2/output/hhi_greedy/lambda100.0/xql662_lambda100.0.txt
=== 테스트 결과 요약 ===
데이터셋           : xql662
사용 알고리즘      : hhi_greedy (lambda=100)
결과 파일          : output/hhi_greedy/lambda100.0/xql662_lambda100.0.tour
정답 일치 여부     : 불일치
걸린 시간          : 5 ms
메모리 사용량      : 3584 KB
성능 상태          : 정상 실행됨

=== 비교 상세 로그 ===
헤더 차이 (라인 2)
GT   : COMMENT: Tour length 2513
내꺼 : COMMENT : Tour length 9265
노드 번호 차이 발견 (처음 일치하지 않은 라인 7)
GT   : 8
내꺼 : 86
TOUR_SECTION 비교 결과: 4 / 663 정확도: 0.603318%

[HHI_GREEDY 결과]
경로 길이          : 9265
꺾임 개수          : 616
평균 꺾임 각도      : 151.48도

⚠️ Greedy 경로 파일을 읽을 수 없습니다: output/greedy/xql662_greedy.tour
